data_Er-995_autored_
_audit_creation_method 'SHELXL-2018/3'
_audit_creation_date	2022-12-06
_audit_update_record	2022-12-06
_chemical_formula_sum	'C H Eu N O S'
_chemical_formula_weight	227.050
_refine_ls_R_factor_all	0.038
_cell_length_a	 9.2223(2)
_cell_length_b	12.2306(2)
_cell_length_c	28.7716(6)
_cell_angle_alpha	88.266(2)
_cell_angle_beta	82.562(2)
_cell_angle_gamma	79.370(2)
_cell_volume	3162.7(1)
_cell_formula_units_Z	36
_symmetry_int_tables_number	2
_symmetry_space_group_name_H-M	'P -1'
_symmetry_space_group_name_Hall	'-P_1'

loop_
_symmetry_equiv_pos_site_id
_symmetry_equiv_pos_as_xyz
1 x,y,z
2 -x,-y,-z

loop_
_atom_type_symbol
_atom_type_oxidation_number
_atom_type_radius_bond
Eu	?	?
S	?	?
O	?	?
H	?	?
N	?	?
C	?	?


loop_
_atom_site_label
_atom_site_type_symbol
_atom_site_fract_x
_atom_site_fract_y
_atom_site_fract_z
_atom_site_occupancy
_atom_site_symmetry_multiplicity
_atom_site_Wyckoff_symbol
_atom_site_attached_hydrogens
_atom_site_calc_flag
_atom_site_thermal_displace_type
_atom_site_u_iso_or_equiv
Eu1 Eu  0.8489(0)  0.8649(0)  0.0197(0)  1.000 2 i ? d Uani  0.02465(5)
Eu2 Eu  0.1515(0)  0.6101(0)  0.4771(0)  1.000 2 i ? d Uani  0.02484(5)
S1 S  1.4829(1)  1.0132(1) -0.1984(0)  1.000 2 i ? d Uani  0.03444(18)
S2 S  0.2926(1)  0.8009(1)  0.2872(0)  1.000 2 i ? d Uani  0.03294(18)
S3 S  0.7079(1)  0.6718(1)  0.2128(0)  1.000 2 i ? d Uani  0.03386(18)
S4 S -0.4608(1)  0.5225(1)  0.6851(0)  1.000 2 i ? d Uani  0.03811(19)
O1 O  1.1933(2)  1.0463(2)  0.0540(1)  1.000 2 i ? d Uani  0.0323(5)
O2 O  0.3410(2)  0.6226(2)  0.4107(1)  1.000 2 i ? d Uani  0.0381(5)
O7 O  1.0869(2)  0.8046(2) -0.0327(1)  1.000 2 i ? d Uani  0.0338(5)
O8 O  1.0285(2)  0.9384(2)  0.0494(1)  1.000 2 i ? d Uani  0.0380(5)
O9 O  0.7246(3)  1.0451(2)  0.0452(1)  1.000 2 i ? d Uani  0.0495(7)
H1C H  0.637(5)  1.069(4)  0.0561(15)  1.000 2 i ? d Uiso  0.07400
H1D H  0.759(5)  1.094(4)  0.0427(16)  1.000 2 i ? d Uiso  0.07400
O10 O  0.9594(3)  0.7005(3)  0.0636(1)  1.000 2 i ? d Uani  0.0532(8)
H1K H  1.035(5)  0.701(4)  0.0778(15)  1.000 2 i ? d Uiso  0.08000
H1L H  0.921(6)  0.684(5)  0.072(2)  1.000 2 i ? d Uiso  0.08000
O11 O  1.7846(3)  1.0991(2) -0.4064(1)  1.000 2 i ? d Uani  0.0541(7)
O12 O  1.7109(3)  1.0598(2) -0.4744(1)  1.000 2 i ? d Uani  0.0560(7)
H12A H  1.772(5)  1.101(4) -0.4861(6)  1.000 2 i ? calc Uiso  0.08400
O13 O  0.9054(2)  0.7158(2) -0.0407(1)  1.000 2 i ? d Uani  0.0366(5)
O14 O  0.6080(2)  0.8151(2)  0.0171(1)  1.000 2 i ? d Uani  0.0483(6)
O15 O  0.6702(2)  0.8352(2)  0.0868(1)  1.000 2 i ? d Uani  0.0406(6)
O16 O -0.0361(2)  0.5278(2)  0.4526(1)  1.000 2 i ? d Uani  0.0309(5)
O17 O -0.2055(2)  0.4291(2)  0.4436(1)  1.000 2 i ? d Uani  0.0319(5)
O18 O  0.2730(3)  0.4246(2)  0.4611(1)  1.000 2 i ? d Uani  0.0442(6)
H1G H  0.353(5)  0.403(4)  0.4488(15)  1.000 2 i ? d Uiso  0.06600
H1H H  0.228(5)  0.382(4)  0.4645(15)  1.000 2 i ? d Uiso  0.06600
O19 O  0.3904(2)  0.6597(2)  0.4805(1)  1.000 2 i ? d Uani  0.0453(6)
O20 O  0.0492(3)  0.7424(2)  0.4214(1)  1.000 2 i ? d Uani  0.0346(5)
H1A H -0.037(4)  0.765(3)  0.4196(13)  1.000 2 i ? d Uiso  0.05200
H1B H  0.084(4)  0.790(3)  0.4148(14)  1.000 2 i ? d Uiso  0.05200
O21 O -0.0716(2)  0.7110(2)  0.5221(1)  1.000 2 i ? d Uani  0.0356(5)
O22 O  0.1085(2)  0.8065(2)  0.5220(1)  1.000 2 i ? d Uani  0.0429(6)
O23 O -0.7590(4)  0.4356(3)  0.8942(2)  1.000 2 i ? d Uani  0.0868(12)
H1M H -0.803(7)  0.423(6)  0.904(3)  1.000 2 i ? d Uiso  0.13000
O24 O -0.6974(4)  0.4940(4)  0.9607(1)  1.000 2 i ? d Uani  0.1263(17)
N1 N -0.3980(4)  0.6500(3)  0.8756(1)  1.000 2 i ? d Uani  0.0669(10)
N2 N -0.4781(3)  0.5405(2)  0.7409(1)  1.000 2 i ? d Uani  0.0333(6)
N3 N -0.1540(3)  0.7749(2)  0.6646(1)  1.000 2 i ? d Uani  0.0297(6)
N4 N -0.4428(3)  0.6221(2)  0.8350(1)  1.000 2 i ? d Uani  0.0358(6)
N5 N -0.0605(3)  0.8489(2)  0.6677(1)  1.000 2 i ? d Uani  0.0431(7)
N6 N  0.3179(3)  0.7818(2)  0.2312(1)  1.000 2 i ? d Uani  0.0289(5)
N7 N  0.8133(3)  0.7599(2)  0.1956(1)  1.000 2 i ? d Uani  0.0285(5)
N8 N  1.3736(3)  0.9279(2) -0.1810(1)  1.000 2 i ? d Uani  0.0297(6)
N9 N  1.1768(3)  0.7609(2) -0.1793(1)  1.000 2 i ? d Uani  0.0264(5)
N10 N  1.4630(3)  0.9174(2) -0.3492(1)  1.000 2 i ? d Uani  0.0273(5)
N11 N  1.4118(3)  0.8948(3) -0.3897(1)  1.000 2 i ? d Uani  0.0487(8)
N12 N  1.0828(3)  0.6874(2) -0.1832(1)  1.000 2 i ? d Uani  0.0422(7)
N13 N  1.4991(3)  0.9973(2) -0.2543(1)  1.000 2 i ? d Uani  0.0290(5)
N14 N  0.2928(2)  0.7041(2)  0.1364(1)  1.000 2 i ? d Uani  0.0235(5)
N15 N  0.2409(3)  0.6932(2)  0.0950(1)  1.000 2 i ? d Uani  0.0352(6)
N16 N  0.9984(2)  0.9347(2)  0.1955(1)  1.000 2 i ? d Uani  0.0230(5)
N17 N  1.1009(3)  1.0012(2)  0.2003(1)  1.000 2 i ? d Uani  0.0312(6)
N18 N  0.1867(2)  0.7127(2)  0.3039(1)  1.000 2 i ? d Uani  0.0271(5)
N19 N  0.0003(2)  0.5395(2)  0.3037(1)  1.000 2 i ? d Uani  0.0230(5)
N20 N -0.1003(3)  0.4716(2)  0.2989(1)  1.000 2 i ? d Uani  0.0304(6)
N21 N  0.6829(3)  0.6919(2)  0.2685(1)  1.000 2 i ? d Uani  0.0306(6)
N22 N  0.7038(2)  0.7736(2)  0.3626(1)  1.000 2 i ? d Uani  0.0253(5)
N23 N  0.7496(3)  0.7906(2)  0.4046(1)  1.000 2 i ? d Uani  0.0353(6)
N24 N -0.3508(3)  0.6075(2)  0.6673(1)  1.000 2 i ? d Uani  0.0329(6)
C1 C  1.5727(3)  0.9769(2) -0.3576(1)  1.000 2 i ? d Uani  0.0313(7)
H1 H  1.6233  1.0018 -0.3353  1.000 2 i ? calc Uiso  0.03800
C2 C  1.5962(3)  0.9939(3) -0.4049(1)  1.000 2 i ? d Uani  0.0329(7)
C3 C  1.4939(4)  0.9420(3) -0.4230(1)  1.000 2 i ? d Uani  0.0507(10)
H3 H  1.4840  0.9406 -0.4547  1.000 2 i ? calc Uiso  0.06100
C4 C  1.3970(3)  0.8788(2) -0.3058(1)  1.000 2 i ? d Uani  0.0247(6)
C5 C  1.3077(3)  0.8016(2) -0.3054(1)  1.000 2 i ? d Uani  0.0275(6)
H5 H  1.2937  0.7734 -0.3338  1.000 2 i ? calc Uiso  0.03300
C6 C  1.2355(3)  0.7625(2) -0.2637(1)  1.000 2 i ? d Uani  0.0278(6)
H6 H  1.1752  0.7100 -0.2654  1.000 2 i ? calc Uiso  0.03300
C7 C  1.2519(3)  0.7998(2) -0.2209(1)  1.000 2 i ? d Uani  0.0226(6)
C8 C  1.3448(3)  0.8808(2) -0.2194(1)  1.000 2 i ? d Uani  0.0244(6)
C9 C  1.4173(3)  0.9205(2) -0.2621(1)  1.000 2 i ? d Uani  0.0245(6)
C10 C  1.7070(4)  1.0562(3) -0.4282(1)  1.000 2 i ? d Uani  0.0385(8)
C11 C  1.0233(4)  0.6740(3) -0.1401(1)  1.000 2 i ? d Uani  0.0396(8)
H11 H  0.9534  0.6285 -0.1319  1.000 2 i ? calc Uiso  0.04700
C12 C  1.0754(3)  0.7349(2) -0.1077(1)  1.000 2 i ? d Uani  0.0269(6)
C13 C  1.1742(3)  0.7891(2) -0.1344(1)  1.000 2 i ? d Uani  0.0269(6)
H13 H  1.2297  0.8368 -0.1235  1.000 2 i ? calc Uiso  0.03200
C14 C  1.0227(3)  0.7501(2) -0.0577(1)  1.000 2 i ? d Uani  0.0281(6)
C15 C  0.5828(3)  0.8090(2)  0.0610(1)  1.000 2 i ? d Uani  0.0293(7)
C16 C  0.4503(3)  0.7670(3)  0.0833(1)  1.000 2 i ? d Uani  0.0280(6)
C17 C  0.4172(3)  0.7488(2)  0.1301(1)  1.000 2 i ? d Uani  0.0273(6)
H17 H  0.4709  0.7644  0.1535  1.000 2 i ? calc Uiso  0.03300
C18 C  0.3364(3)  0.7316(3)  0.0632(1)  1.000 2 i ? d Uani  0.0381(8)
H18 H  0.3288  0.7347  0.0313  1.000 2 i ? calc Uiso  0.04600
C19 C  1.1049(3)  0.9859(2)  0.0727(1)  1.000 2 i ? d Uani  0.0240(6)
C20 C  1.0850(3)  0.9734(2)  0.1238(1)  1.000 2 i ? d Uani  0.0236(6)
C21 C  0.9872(3)  0.9176(2)  0.1502(1)  1.000 2 i ? d Uani  0.0249(6)
H21 H  0.9247  0.8758  0.1390  1.000 2 i ? calc Uiso  0.03000
C22 C  1.1512(3)  1.0233(2)  0.1569(1)  1.000 2 i ? d Uani  0.0296(7)
H22 H  1.2230  1.0672  0.1489  1.000 2 i ? calc Uiso  0.03500
C23 C  0.2231(3)  0.6623(2)  0.1785(1)  1.000 2 i ? d Uani  0.0229(6)
C24 C  0.2391(3)  0.7041(2)  0.2230(1)  1.000 2 i ? d Uani  0.0227(6)
C25 C  0.1640(3)  0.6635(2)  0.2650(1)  1.000 2 i ? d Uani  0.0219(6)
C26 C  0.0758(3)  0.5800(2)  0.2626(1)  1.000 2 i ? d Uani  0.0210(6)
C27 C  0.0654(3)  0.5413(2)  0.2193(1)  1.000 2 i ? d Uani  0.0254(6)
H27 H  0.0093  0.4863  0.2170  1.000 2 i ? calc Uiso  0.03000
C28 C  0.1381(3)  0.5830(2)  0.1779(1)  1.000 2 i ? d Uani  0.0260(6)
H28 H  0.1270  0.5548  0.1491  1.000 2 i ? calc Uiso  0.03100
C29 C  0.9227(3)  0.8944(2)  0.2369(1)  1.000 2 i ? d Uani  0.0231(6)
C30 C  0.8359(3)  0.8108(2)  0.2342(1)  1.000 2 i ? d Uani  0.0230(6)
C31 C  0.7597(3)  0.7705(2)  0.2765(1)  1.000 2 i ? d Uani  0.0233(6)
C32 C  0.7753(3)  0.8133(2)  0.3208(1)  1.000 2 i ? d Uani  0.0239(6)
C33 C  0.8602(3)  0.8934(2)  0.3214(1)  1.000 2 i ? d Uani  0.0263(6)
H33 H  0.8706  0.9222  0.3501  1.000 2 i ? calc Uiso  0.03200
C34 C  0.9332(3)  0.9341(2)  0.2797(1)  1.000 2 i ? d Uani  0.0267(6)
H34 H  0.9894  0.9892  0.2818  1.000 2 i ? calc Uiso  0.03200
C35 C  0.0109(3)  0.5570(2)  0.3491(1)  1.000 2 i ? d Uani  0.0241(6)
H35 H  0.0724  0.5995  0.3605  1.000 2 i ? calc Uiso  0.02900
C36 C -0.0867(3)  0.4999(2)  0.3754(1)  1.000 2 i ? d Uani  0.0219(6)
C37 C -0.1510(3)  0.4492(3)  0.3422(1)  1.000 2 i ? d Uani  0.0284(7)
H37 H -0.2219  0.4044  0.3501  1.000 2 i ? calc Uiso  0.03400
C38 C  0.5848(3)  0.7226(2)  0.3682(1)  1.000 2 i ? d Uani  0.0282(6)
H38 H  0.5352  0.7028  0.3445  1.000 2 i ? calc Uiso  0.03400
C39 C  0.5504(3)  0.7052(2)  0.4151(1)  1.000 2 i ? d Uani  0.0284(6)
C40 C  0.6559(3)  0.7484(3)  0.4360(1)  1.000 2 i ? d Uani  0.0363(8)
H40 H  0.6600  0.7477  0.4681  1.000 2 i ? calc Uiso  0.04400
C41 C -0.1107(3)  0.4864(2)  0.4264(1)  1.000 2 i ? d Uani  0.0241(6)
C42 C  0.4217(3)  0.6582(2)  0.4366(1)  1.000 2 i ? d Uani  0.0286(6)
C43 C -0.0051(3)  0.7752(3)  0.5426(1)  1.000 2 i ? d Uani  0.0314(7)
C44 C -0.0549(3)  0.7978(2)  0.5924(1)  1.000 2 i ? d Uani  0.0294(6)
C45 C -0.0010(4)  0.8604(3)  0.6239(1)  1.000 2 i ? d Uani  0.0428(8)
H45 H  0.0692  0.9052  0.6150  1.000 2 i ? calc Uiso  0.05100
C46 C -0.1524(3)  0.7439(2)  0.6201(1)  1.000 2 i ? d Uani  0.0297(7)
H46 H -0.2074  0.6948  0.6099  1.000 2 i ? calc Uiso  0.03600
C47 C -0.2296(3)  0.7372(2)  0.7066(1)  1.000 2 i ? d Uani  0.0268(6)
C48 C -0.2137(3)  0.7752(2)  0.7492(1)  1.000 2 i ? d Uani  0.0308(7)
H48 H -0.1535  0.8278  0.7508  1.000 2 i ? calc Uiso  0.03700
C49 C -0.2862(3)  0.7370(3)  0.7912(1)  1.000 2 i ? d Uani  0.0323(7)
H49 H -0.2718  0.7655  0.8195  1.000 2 i ? calc Uiso  0.03900
C50 C -0.3762(3)  0.6601(2)  0.7920(1)  1.000 2 i ? d Uani  0.0288(6)
C51 C -0.3958(3)  0.6175(2)  0.7482(1)  1.000 2 i ? d Uani  0.0274(6)
C52 C -0.3222(3)  0.6560(2)  0.7055(1)  1.000 2 i ? d Uani  0.0255(6)
C53 C -0.4789(5)  0.6022(4)  0.9082(1)  1.000 2 i ? d Uani  0.0727(13)
H53 H -0.4726  0.6070  0.9401  1.000 2 i ? calc Uiso  0.08700
C54 C -0.5741(4)  0.5442(3)  0.8905(1)  1.000 2 i ? d Uani  0.0454(9)
C55 C -0.5485(3)  0.5584(3)  0.8433(1)  1.000 2 i ? d Uani  0.0374(8)
H55 H -0.5951  0.5297  0.8209  1.000 2 i ? calc Uiso  0.04500
C56 C -0.6841(4)  0.4865(4)  0.9165(2)  1.000 2 i ? d Uani  0.0583(11)
O5 O  0.4417(3)  1.1087(3)  0.0907(1)  1.000 2 i ? d Uani  0.0570(8)
H1E H  0.388(5)  1.092(4)  0.0774(17)  1.000 2 i ? d Uiso  0.08600
H1F H  0.425(6)  1.172(4)  0.0932(18)  1.000 2 i ? d Uiso  0.08600
O6 O  0.5513(3)  0.3503(2)  0.4146(1)  1.000 2 i ? d Uani  0.0504(7)
H1I H  0.569(5)  0.281(4)  0.4163(16)  1.000 2 i ? d Uiso  0.07600
H1J H  0.610(5)  0.374(4)  0.4270(15)  1.000 2 i ? d Uiso  0.07600
O3 O -0.9448(6)  0.4937(5)  1.0092(2)  0.500 2 i ? d Uani  0.0631(18)
H1 H -0.906(5)  0.439(4)  1.0294(18)  1.000 2 i ? d Uiso  0.09500
O4 O -0.8491(8)  0.4896(6)  1.0511(3)  0.500 2 i ? d Uani  0.095(2)


loop_
_atom_site_aniso_label
_atom_site_aniso_U_11
_atom_site_aniso_U_22
_atom_site_aniso_U_33
_atom_site_aniso_U_12
_atom_site_aniso_U_13
_atom_site_aniso_U_23
Eu1  0.02582(8)  0.03475(9)  0.01665(7) -0.01656(6)  0.00069(6)  0.00109(6)
Eu2  0.02501(8)  0.03600(9)  0.01744(7) -0.01755(6) -0.00044(6)  0.00126(6)
S1  0.0373(4)  0.0396(5)  0.0319(4) -0.0199(4) -0.0051(3) -0.0047(3)
S2  0.0361(4)  0.0425(5)  0.0258(4) -0.0228(4) -0.0021(3) -0.0010(3)
S3  0.0351(4)  0.0399(5)  0.0316(4) -0.0200(4) -0.0039(3) -0.0018(3)
S4  0.0382(4)  0.0446(5)  0.0367(4) -0.0197(4) -0.0046(4) -0.0081(4)
O1  0.0353(11)  0.0427(13)  0.023(1) -0.0205(10) -0.0020(9)  0.0088(9)
O2  0.0345(12)  0.0579(15)  0.0271(11) -0.0266(11)  0.0026(9)  0.0005(10)
O7  0.0379(12)  0.0412(13)  0.0256(11) -0.0199(10)  0.0033(9) -0.0052(9)
O8  0.0391(12)  0.0530(15)  0.0272(11) -0.0201(11) -0.006(1) -0.0057(10)
O9  0.0396(14)  0.0419(16)  0.0652(17) -0.0188(12)  0.0183(13) -0.0106(13)
O10  0.0452(17)  0.0706(19)  0.0534(17) -0.0324(14) -0.0175(14)  0.0308(14)
O11  0.0536(15)  0.0593(17)  0.0594(16) -0.0378(14) -0.0070(13)  0.0117(13)
O12  0.0691(18)  0.0638(18)  0.0411(15) -0.0414(15)  0.0118(13)  0.0060(12)
O13  0.0417(12)  0.0424(13)  0.0291(11) -0.0239(10)  0.0076(10) -0.0049(10)
O14  0.0407(13)  0.087(2)  0.0243(12) -0.0362(13)  0.0031(10)  0.0043(12)
O15  0.0385(12)  0.0644(16)  0.0257(11) -0.0318(12)  0.0022(10)  0.0029(10)
O16  0.0348(11)  0.0425(13)  0.0217(10) -0.022(1) -0.0060(9)  0.0015(9)
O17  0.0331(11)  0.0472(13)  0.0214(10) -0.0253(10) -0.0017(9)  0.0067(9)
O18  0.0356(13)  0.0410(15)  0.0558(16) -0.0177(11)  0.0108(12) -0.0019(12)
O19  0.0386(12)  0.0804(18)  0.0250(12) -0.0365(13)  0.0017(10)  0.0023(11)
O20  0.0317(12)  0.0423(15)  0.0342(12) -0.0195(11) -0.0041(10)  0.0086(10)
O21  0.0404(12)  0.0389(13)  0.0297(11) -0.0193(10)  0.0058(10) -0.0059(10)
O22  0.0460(13)  0.0522(15)  0.0365(13) -0.0307(12)  0.0026(11)  0.0052(11)
O23  0.055(2)  0.074(2)  0.127(3) -0.0241(18)  0.010(2)  0.050(2)
O24  0.096(3)  0.210(5)  0.055(2) -0.012(3)  0.024(2)  0.040(3)
N1  0.088(3)  0.098(3)  0.0263(16) -0.050(2) -0.0035(16)  0.0000(17)
N2  0.0336(14)  0.0354(15)  0.0327(14) -0.0121(12) -0.0023(11) -0.0035(11)
N3  0.0285(13)  0.0328(15)  0.0286(13) -0.0096(11)  0.0001(11) -0.0051(11)
N4  0.0410(15)  0.0366(16)  0.0291(14) -0.0079(12) -0.0004(12)  0.0002(12)
N5  0.0552(17)  0.0493(18)  0.0328(15) -0.0324(15) -0.0008(13) -0.0054(13)
N6  0.0278(12)  0.0366(15)  0.0249(13) -0.0155(11) -0.0005(10)  0.0031(11)
N7  0.0303(13)  0.0319(14)  0.0255(13) -0.0115(11) -0.0042(10)  0.0018(10)
N8  0.0300(13)  0.0340(15)  0.0280(13) -0.0121(11) -0.0045(11) -0.0033(11)
N9  0.0305(13)  0.0279(14)  0.0230(12) -0.0125(10) -0.0014(10)  0.0002(10)
N10  0.0302(13)  0.0302(14)  0.0245(12) -0.0150(11) -0.001(1)  0.0002(10)
N11  0.0617(19)  0.073(2)  0.0237(14) -0.0452(17) -0.0063(13)  0.0065(14)
N12  0.0552(17)  0.0544(19)  0.0261(14) -0.0387(15)  0.0027(13) -0.0042(12)
N13  0.0284(12)  0.0304(14)  0.0305(13) -0.0120(11) -0.0023(11) -0.0018(11)
N14  0.0219(11)  0.0319(14)  0.0181(11) -0.0101(10) -0.0008(9)  0.0038(10)
N15  0.0312(13)  0.0585(19)  0.0211(13) -0.0234(13) -0.0022(11)  0.0056(12)
N16  0.0261(12)  0.0248(13)  0.0201(12) -0.0112(10) -0.0014(10)  0.0027(9)
N17  0.0385(14)  0.0412(16)  0.0197(12) -0.0246(12) -0.0014(11)  0.0026(11)
N18  0.0285(12)  0.0331(14)  0.0228(12) -0.0133(11) -0.004(1)  0.0013(10)
N19  0.0266(12)  0.0252(13)  0.0192(11) -0.0123(10) -0.0005(10)  0.0020(9)
N20  0.0392(14)  0.0383(15)  0.0201(12) -0.0248(12) -0.0023(11)  0.0011(10)
N21  0.0282(13)  0.0358(15)  0.0301(13) -0.0136(11) -0.0018(11)  0.0032(11)
N22  0.0222(12)  0.0324(14)  0.0224(12) -0.011(1) -0.0001(10)  0.0057(10)
N23  0.0286(13)  0.0547(18)  0.0265(13) -0.0187(12) -0.0040(11)  0.0077(12)
N24  0.0318(13)  0.0416(16)  0.0286(13) -0.0140(12) -0.0038(11) -0.0060(12)
C1  0.0328(16)  0.0265(16)  0.0370(17) -0.0131(13) -0.0022(14) -0.0004(13)
C2  0.0355(17)  0.0310(17)  0.0322(17) -0.0130(14)  0.0045(14)  0.0037(13)
C3  0.066(2)  0.069(3)  0.0276(17) -0.043(2) -0.0049(17)  0.0096(17)
C4  0.0237(14)  0.0272(16)  0.0232(14) -0.0068(12) -0.0005(12)  0.0021(12)
C5  0.0317(15)  0.0308(17)  0.0222(14) -0.0130(13) -0.0008(12) -0.0037(12)
C6  0.0303(15)  0.0277(16)  0.0283(15) -0.0140(13) -0.0009(13) -0.0019(12)
C7  0.0215(13)  0.0236(15)  0.0222(14) -0.0052(11)  0.0007(11)  0.0006(11)
C8  0.0230(14)  0.0270(16)  0.0236(14) -0.0056(12) -0.0029(12) -0.0013(12)
C9  0.0185(13)  0.0234(15)  0.0319(15) -0.0048(11) -0.0032(12)  0.0005(12)
C10  0.0443(19)  0.0286(18)  0.0410(19) -0.0121(15)  0.0074(16)  0.0044(14)
C11  0.054(2)  0.045(2)  0.0261(16) -0.0324(17)  0.0044(15) -0.0014(14)
C12  0.0290(15)  0.0248(16)  0.0270(15) -0.0074(12) -0.0010(12)  0.0004(12)
C13  0.0308(15)  0.0277(16)  0.0234(14) -0.0088(12) -0.0022(12) -0.0033(12)
C14  0.0321(15)  0.0263(16)  0.0251(15) -0.0084(13)  0.0043(13) -0.0028(12)
C15  0.0270(15)  0.0325(17)  0.0276(16) -0.0107(13)  0.0056(13)  0.0048(13)
C16  0.0237(14)  0.0372(18)  0.0237(15) -0.0112(13)  0.0021(12)  0.0033(12)
C17  0.0215(14)  0.0317(17)  0.0304(16) -0.0100(12) -0.0030(12)  0.0042(13)
C18  0.0353(17)  0.059(2)  0.0229(15) -0.0201(16) -0.0001(13)  0.0060(15)
C19  0.0227(14)  0.0287(16)  0.0220(14) -0.0073(12) -0.0046(12)  0.0002(12)
C20  0.0261(14)  0.0257(15)  0.0200(13) -0.0087(12) -0.0022(11)  0.0034(11)
C21  0.0291(15)  0.0268(16)  0.0210(14) -0.0112(12) -0.0039(12)  0.0021(11)
C22  0.0323(16)  0.0359(18)  0.0241(15) -0.0180(14) -0.0006(13)  0.0034(13)
C23  0.0207(13)  0.0272(15)  0.0206(13) -0.0072(11)  0.0011(11)  0.0035(11)
C24  0.0189(13)  0.0278(15)  0.0218(14) -0.0070(11) -0.0006(11)  0.0041(11)
C25  0.0218(13)  0.0237(15)  0.0207(13) -0.0055(11) -0.0024(11)  0.0004(11)
C26  0.0217(13)  0.0234(15)  0.0177(13) -0.0060(11)  0.0008(11)  0.0027(11)
C27  0.0279(14)  0.0254(15)  0.0244(14) -0.0101(12) -0.0013(12)  0.0008(12)
C28  0.0303(15)  0.0307(16)  0.0172(13) -0.0083(12)  0.0003(12) -0.0012(11)
C29  0.0240(14)  0.0241(15)  0.0206(14) -0.0061(11)  0.0002(11)  0.0052(11)
C30  0.0199(13)  0.0255(15)  0.0228(14) -0.0034(11) -0.0022(11)  0.0039(11)
C31  0.0187(13)  0.0245(15)  0.0277(15) -0.0070(11) -0.0032(11)  0.0048(12)
C32  0.0196(13)  0.0275(16)  0.0233(14) -0.0033(11) -0.0008(11)  0.0054(12)
C33  0.0285(15)  0.0313(16)  0.0199(14) -0.0113(12)  0.0022(12)  0.0000(12)
C34  0.0289(15)  0.0250(16)  0.0272(15) -0.0109(12)  0.0009(12)  0.0027(12)
C35  0.0267(14)  0.0284(16)  0.0188(13) -0.0102(12) -0.0013(11) -0.0003(11)
C36  0.0232(13)  0.0245(15)  0.0200(13) -0.0088(11) -0.0042(11)  0.0024(11)
C37  0.0308(15)  0.0381(18)  0.0212(14) -0.0200(13) -0.0024(12)  0.0034(12)
C38  0.0229(14)  0.0343(17)  0.0302(16) -0.0132(12) -0.0038(12)  0.0051(13)
C39  0.0214(14)  0.0343(17)  0.0294(16) -0.0087(12)  0.0008(12)  0.0078(13)
C40  0.0330(16)  0.055(2)  0.0240(15) -0.0201(15) -0.0005(13)  0.0103(14)
C41  0.0242(14)  0.0291(16)  0.0210(14) -0.0111(12) -0.0023(12)  0.0022(12)
C42  0.0235(14)  0.0345(17)  0.0275(16) -0.0099(13)  0.0031(13)  0.0080(13)
C43  0.0320(16)  0.0312(17)  0.0316(16) -0.0098(13) -0.0015(13)  0.0026(13)
C44  0.0301(15)  0.0275(16)  0.0304(16) -0.0087(13)  0.0017(13) -0.0005(13)
C45  0.052(2)  0.048(2)  0.0362(19) -0.0293(17) -0.0041(16)  0.0001(15)
C46  0.0321(15)  0.0311(17)  0.0268(15) -0.0086(13) -0.0013(13) -0.0067(13)
C47  0.0244(14)  0.0283(16)  0.0280(15) -0.0064(12) -0.0020(12) -0.0024(12)
C48  0.0328(16)  0.0301(17)  0.0322(16) -0.0122(13) -0.0032(13) -0.0046(13)
C49  0.0377(17)  0.0339(18)  0.0261(15) -0.0078(14) -0.0038(13) -0.0069(13)
C50  0.0286(15)  0.0309(17)  0.0251(15) -0.0027(13) -0.0007(12) -0.0011(12)
C51  0.0238(14)  0.0255(16)  0.0318(16) -0.0008(12) -0.0049(12) -0.0015(12)
C52  0.0237(14)  0.0285(16)  0.0242(14) -0.0044(12) -0.0027(12) -0.0040(12)
C53  0.093(3)  0.100(4)  0.028(2) -0.036(3)  0.002(2)  0.005(2)
C54  0.047(2)  0.041(2)  0.041(2) -0.0023(16)  0.0099(17)  0.0055(16)
C55  0.0395(18)  0.0289(18)  0.0412(19) -0.0066(14)  0.0058(15) -0.0019(14)
C56  0.046(2)  0.060(3)  0.062(3) -0.002(2)  0.008(2)  0.017(2)
O5  0.0416(15)  0.081(2)  0.0540(17) -0.0244(16) -0.0078(12) -0.0095(17)
O6  0.0417(14)  0.0667(19)  0.0491(15) -0.0195(14) -0.0133(12) -0.0105(14)
O3  0.073(5)  0.042(3)  0.070(5) -0.013(4)  0.008(4)  0.011(3)
O4  0.091(5)  0.065(5)  0.135(7) -0.036(4) -0.006(5) -0.022(4)

loop_
_geom_bond_atom_site_label_1
_geom_bond_atom_site_label_2
_geom_bond_site_symmetry_1
_geom_bond_site_symmetry_2
_geom_bond_distance
_geom_bond_publ_flag
Eu1 O8 . .  2.2894(19) no
Eu1 O9 . .  2.378(3) no
Eu1 O1 . 2_775  2.3966(19) no
Eu1 O14 . .  2.420(2) no
Eu1 O15 . .  2.4348(19) no
Eu1 O10 . .  2.469(3) no
Eu1 O13 . .  2.494(2) no
Eu1 O7 . .  2.5008(19) no
Eu1 C15 . .  2.778(3) no
Eu1 C14 . .  2.817(3) no
Eu1 C19 . 2_775  3.207(3) no
Eu1 H1L . .  2.68(6) no
Eu2 O16 . .  2.3464(18) no
Eu2 O18 . .  2.368(3) no
Eu2 O20 . .  2.398(2) no
Eu2 O19 . .  2.405(2) no
Eu2 O17 . 2_566  2.4139(19) no
Eu2 O21 . .  2.430(2) no
Eu2 O2 . .  2.4374(19) no
Eu2 O22 . .  2.702(2) no
Eu2 C42 . .  2.767(3) no
Eu2 O16 . 2_566  2.8236(19) no
Eu2 C43 . .  2.857(3) no
Eu2 C41 . 2_566  2.991(3) no
Eu2 H1H . .  2.77(4) no
S1 N8 . .  1.607(2) no
S1 N13 . .  1.611(2) no
S2 N18 . .  1.609(2) no
S2 N6 . .  1.615(2) no
S3 N7 . .  1.606(2) no
S3 N21 . .  1.607(3) no
S4 N2 . .  1.611(3) no
S4 N24 . .  1.611(2) no
O1 C19 . .  1.259(3) no
O2 C42 . .  1.258(3) no
O7 C14 . .  1.263(3) no
O8 C19 . .  1.257(3) no
O9 H1C . .  0.83(4) no
O9 H1D . .  0.73(4) no
O10 H1K . .  0.86(4) no
O10 H1L . .  0.48(5) no
O11 C10 . .  1.206(4) no
O12 C10 . .  1.325(4) no
O12 H12A . .  0.85(4) no
O13 C14 . .  1.266(3) no
O14 C15 . .  1.258(3) no
O15 C15 . .  1.252(3) no
O16 C41 . .  1.257(3) no
O17 C41 . .  1.263(3) no
O18 H1G . .  0.78(4) no
O18 H1H . .  0.71(4) no
O19 C42 . .  1.259(3) no
O20 H1A . .  0.80(4) no
O20 H1B . .  0.73(4) no
O21 C43 . .  1.280(3) no
O22 C43 . .  1.253(3) no
O23 C56 . .  1.255(7) no
O23 H1M . .  0.51(6) no
O24 C56 . .  1.267(5) no
N1 C53 . .  1.315(5) no
N1 N4 . .  1.360(4) no
N2 C51 . .  1.351(4) no
N3 C46 . .  1.344(4) no
N3 N5 . .  1.372(3) no
N3 C47 . .  1.423(4) no
N4 C55 . .  1.350(4) no
N4 C50 . .  1.415(4) no
N5 C45 . .  1.322(4) no
N6 C24 . .  1.342(3) no
N7 C30 . .  1.347(3) no
N8 C8 . .  1.340(3) no
N9 C13 . .  1.342(3) no
N9 N12 . .  1.376(3) no
N9 C7 . .  1.418(3) no
N10 C1 . .  1.344(3) no
N10 N11 . .  1.366(3) no
N10 C4 . .  1.422(3) no
N11 C3 . .  1.329(4) no
N12 C11 . .  1.308(4) no
N13 C9 . .  1.349(3) no
N14 C17 . .  1.349(3) no
N14 N15 . .  1.360(3) no
N14 C23 . .  1.422(3) no
N15 C18 . .  1.323(4) no
N16 C21 . .  1.347(3) no
N16 N17 . .  1.378(3) no
N16 C29 . .  1.422(3) no
N17 C22 . .  1.313(3) no
N18 C25 . .  1.344(3) no
N19 C35 . .  1.350(3) no
N19 N20 . .  1.376(3) no
N19 C26 . .  1.416(3) no
N20 C37 . .  1.313(3) no
N21 C31 . .  1.336(3) no
N22 C38 . .  1.350(3) no
N22 N23 . .  1.365(3) no
N22 C32 . .  1.413(3) no
N23 C40 . .  1.327(4) no
N24 C52 . .  1.343(3) no
C1 C2 . .  1.366(4) no
C1 H1 . .  0.9300 no
C2 C3 . .  1.391(4) no
C2 C10 . .  1.467(4) no
C3 H3 . .  0.9300 no
C4 C5 . .  1.362(4) no
C4 C9 . .  1.419(4) no
C5 C6 . .  1.411(4) no
C5 H5 . .  0.9300 no
C6 C7 . .  1.361(4) no
C6 H6 . .  0.9300 no
C7 C8 . .  1.429(4) no
C8 C9 . .  1.437(4) no
C11 C12 . .  1.395(4) no
C11 H11 . .  0.9300 no
C12 C13 . .  1.368(4) no
C12 C14 . .  1.464(4) no
C13 H13 . .  0.9300 no
C15 C16 . .  1.476(4) no
C16 C17 . .  1.362(4) no
C16 C18 . .  1.401(4) no
C17 H17 . .  0.9300 no
C18 H18 . .  0.9300 no
C19 C20 . .  1.463(4) no
C20 C21 . .  1.370(4) no
C20 C22 . .  1.406(4) no
C21 H21 . .  0.9300 no
C22 H22 . .  0.9300 no
C23 C28 . .  1.358(4) no
C23 C24 . .  1.426(4) no
C24 C25 . .  1.435(4) no
C25 C26 . .  1.427(3) no
C26 C27 . .  1.367(4) no
C27 C28 . .  1.419(4) no
C27 H27 . .  0.9300 no
C28 H28 . .  0.9300 no
C29 C34 . .  1.361(4) no
C29 C30 . .  1.419(4) no
C30 C31 . .  1.445(4) no
C31 C32 . .  1.425(4) no
C32 C33 . .  1.364(4) no
C33 C34 . .  1.421(4) no
C33 H33 . .  0.9300 no
C34 H34 . .  0.9300 no
C35 C36 . .  1.376(4) no
C35 H35 . .  0.9300 no
C36 C37 . .  1.402(4) no
C36 C41 . .  1.465(4) no
C37 H37 . .  0.9300 no
C38 C39 . .  1.363(4) no
C38 H38 . .  0.9300 no
C39 C40 . .  1.396(4) no
C39 C42 . .  1.471(4) no
C40 H40 . .  0.9300 no
C43 C44 . .  1.467(4) no
C44 C46 . .  1.371(4) no
C44 C45 . .  1.397(4) no
C45 H45 . .  0.9300 no
C46 H46 . .  0.9300 no
C47 C48 . .  1.360(4) no
C47 C52 . .  1.428(4) no
C48 C49 . .  1.413(4) no
C48 H48 . .  0.9300 no
C49 C50 . .  1.362(4) no
C49 H49 . .  0.9300 no
C50 C51 . .  1.423(4) no
C51 C52 . .  1.435(4) no
C53 C54 . .  1.379(5) no
C53 H53 . .  0.9300 no
C54 C55 . .  1.360(5) no
C54 C56 . .  1.458(5) no
C55 H55 . .  0.9300 no
C56 H1M . .  1.54(7) no
O5 H1E . .  0.73(5) no
O5 H1F . .  0.77(5) no
O6 H1I . .  0.83(4) no
O6 H1J . .  0.79(4) no
O3 O3 . 2_367  1.189(11) no
O3 H1 . .  0.92(5) no

loop_
_geom_angle_atom_site_label_1
_geom_angle_atom_site_label_2
_geom_angle_atom_site_label_3
_geom_angle_site_symmetry_1
_geom_angle_site_symmetry_2
_geom_angle_site_symmetry_3
_geom_angle
_geom_angle_publ_flag
O8 Eu1 O9 . . . 76.19(9) no
O8 Eu1 O1 . . 2_775 108.47(7) no
O9 Eu1 O1 . . 2_775 79.32(9) no
O8 Eu1 O14 . . . 157.67(7) no
O9 Eu1 O14 . . . 88.44(9) no
O1 Eu1 O14 2_775 . . 83.93(7) no
O8 Eu1 O15 . . . 105.81(7) no
O9 Eu1 O15 . . . 74.09(8) no
O1 Eu1 O15 2_775 . . 129.45(7) no
O14 Eu1 O15 . . . 53.60(7) no
O8 Eu1 O10 . . . 81.06(9) no
O9 Eu1 O10 . . . 131.42(11) no
O1 Eu1 O10 2_775 . . 149.13(10) no
O14 Eu1 O10 . . . 97.87(8) no
O15 Eu1 O10 . . . 71.74(9) no
O8 Eu1 O13 . . . 123.37(7) no
O9 Eu1 O13 . . . 150.08(9) no
O1 Eu1 O13 2_775 . . 73.08(7) no
O14 Eu1 O13 . . . 77.51(7) no
O15 Eu1 O13 . . . 115.50(7) no
O10 Eu1 O13 . . . 77.24(10) no
O8 Eu1 O7 . . . 72.93(7) no
O9 Eu1 O7 . . . 130.79(7) no
O1 Eu1 O7 2_775 . . 75.42(7) no
O14 Eu1 O7 . . . 129.07(7) no
O15 Eu1 O7 . . . 151.31(8) no
O10 Eu1 O7 . . . 79.87(9) no
O13 Eu1 O7 . . . 52.14(6) no
O8 Eu1 C15 . . . 132.32(8) no
O9 Eu1 C15 . . . 81.48(8) no
O1 Eu1 C15 2_775 . . 107.96(8) no
O14 Eu1 C15 . . . 26.89(8) no
O15 Eu1 C15 . . . 26.76(8) no
O10 Eu1 C15 . . . 83.20(8) no
O13 Eu1 C15 . . . 96.06(7) no
O7 Eu1 C15 . . . 146.56(8) no
O8 Eu1 C14 . . . 99.56(8) no
O9 Eu1 C14 . . . 142.48(9) no
O1 Eu1 C14 2_775 . . 66.57(8) no
O14 Eu1 C14 . . . 102.46(8) no
O15 Eu1 C14 . . . 140.48(8) no
O10 Eu1 C14 . . . 83.09(10) no
O13 Eu1 C14 . . . 26.71(7) no
O7 Eu1 C14 . . . 26.64(7) no
C15 Eu1 C14 . . . 122.76(8) no
O8 Eu1 C19 . . 2_775 88.80(7) no
O9 Eu1 C19 . . 2_775 77.37(8) no
O1 Eu1 C19 2_775 . 2_775 20.02(6) no
O14 Eu1 C19 . . 2_775 103.75(7) no
O15 Eu1 C19 . . 2_775 143.44(8) no
O10 Eu1 C19 . . 2_775 144.61(9) no
O13 Eu1 C19 . . 2_775 80.49(7) no
O7 Eu1 C19 . . 2_775 64.75(7) no
C15 Eu1 C19 . . 2_775 126.52(8) no
C14 Eu1 C19 . . 2_775 65.21(8) no
O8 Eu1 H1L . . . 87.9(12) no
O9 Eu1 H1L . . . 127.8(13) no
O1 Eu1 H1L 2_775 . . 151.8(13) no
O14 Eu1 H1L . . . 88.9(11) no
O15 Eu1 H1L . . . 63.0(12) no
O10 Eu1 H1L . . .  9.7(11) no
O13 Eu1 H1L . . . 78.8(13) no
O7 Eu1 H1L . . . 88.4(12) no
C15 Eu1 H1L . . . 73.5(11) no
C14 Eu1 H1L . . . 88.6(13) no
C19 Eu1 H1L 2_775 . . 152.7(12) no
O16 Eu2 O18 . . . 77.01(8) no
O16 Eu2 O20 . . . 77.16(7) no
O18 Eu2 O20 . . . 126.21(9) no
O16 Eu2 O19 . . . 160.98(7) no
O18 Eu2 O19 . . . 88.83(9) no
O20 Eu2 O19 . . . 102.00(8) no
O16 Eu2 O17 . . 2_566 116.65(6) no
O18 Eu2 O17 . . 2_566 85.53(9) no
O20 Eu2 O17 . . 2_566 148.21(8) no
O19 Eu2 O17 . . 2_566 74.09(7) no
O16 Eu2 O21 . . . 77.58(7) no
O18 Eu2 O21 . . . 139.55(7) no
O20 Eu2 O21 . . . 77.04(8) no
O19 Eu2 O21 . . . 121.05(7) no
O17 Eu2 O21 2_566 . . 78.44(7) no
O16 Eu2 O2 . . . 109.23(7) no
O18 Eu2 O2 . . . 74.58(8) no
O20 Eu2 O2 . . . 70.79(8) no
O19 Eu2 O2 . . . 53.90(7) no
O17 Eu2 O2 2_566 . . 123.76(7) no
O21 Eu2 O2 . . . 144.22(8) no
O16 Eu2 O22 . . . 125.49(7) no
O18 Eu2 O22 . . . 153.70(9) no
O20 Eu2 O22 . . . 76.40(8) no
O19 Eu2 O22 . . . 71.71(8) no
O17 Eu2 O22 2_566 . . 72.43(7) no
O21 Eu2 O22 . . . 50.43(6) no
O2 Eu2 O22 . . . 105.62(7) no
O16 Eu2 C42 . . . 136.10(8) no
O18 Eu2 C42 . . . 82.79(8) no
O20 Eu2 C42 . . . 84.40(8) no
O19 Eu2 C42 . . . 27.03(8) no
O17 Eu2 C42 2_566 . . 99.88(8) no
O21 Eu2 C42 . . . 136.25(8) no
O2 Eu2 C42 . . . 27.03(8) no
O22 Eu2 C42 . . . 86.95(8) no
O16 Eu2 O16 . . 2_566 68.12(7) no
O18 Eu2 O16 . . 2_566 72.19(7) no
O20 Eu2 O16 . . 2_566 135.62(7) no
O19 Eu2 O16 . . 2_566 119.80(7) no
O17 Eu2 O16 2_566 . 2_566 48.58(6) no
O21 Eu2 O16 . . 2_566 69.34(7) no
O2 Eu2 O16 . . 2_566 146.35(7) no
O22 Eu2 O16 . . 2_566 101.80(6) no
C42 Eu2 O16 . . 2_566 139.97(7) no
O16 Eu2 C43 . . . 104.05(8) no
O18 Eu2 C43 . . . 149.67(9) no
O20 Eu2 C43 . . . 82.53(8) no
O19 Eu2 C43 . . . 94.60(8) no
O17 Eu2 C43 2_566 . . 66.66(8) no
O21 Eu2 C43 . . . 26.48(7) no
O2 Eu2 C43 . . . 130.57(8) no
O22 Eu2 C43 . . . 25.85(7) no
C42 Eu2 C43 . . . 112.65(9) no
O16 Eu2 C43 2_566 . . 80.07(7) no
O16 Eu2 C41 . . 2_566 92.57(7) no
O18 Eu2 C41 . . 2_566 80.65(9) no
O20 Eu2 C41 . . 2_566 146.53(8) no
O19 Eu2 C41 . . 2_566 97.65(7) no
O17 Eu2 C41 2_566 . 2_566 24.13(6) no
O21 Eu2 C41 . . 2_566 69.62(8) no
O2 Eu2 C41 . . 2_566 141.82(8) no
O22 Eu2 C41 . . 2_566 84.52(7) no
C42 Eu2 C41 . . 2_566 122.17(8) no
O16 Eu2 C41 2_566 . 2_566 24.76(6) no
C43 Eu2 C41 . . 2_566 69.02(8) no
O16 Eu2 H1H . . . 65.7(9) no
O18 Eu2 H1H . . . 13.3(8) no
O20 Eu2 H1H . . . 125.8(9) no
O19 Eu2 H1H . . . 101.5(9) no
O17 Eu2 H1H 2_566 . . 85.3(9) no
O21 Eu2 H1H . . . 127.1(9) no
O2 Eu2 H1H . . . 85.5(9) no
O22 Eu2 H1H . . . 157.7(9) no
C42 Eu2 H1H . . . 95.9(8) no
O16 Eu2 H1H 2_566 . . 62.4(9) no
C43 Eu2 H1H . . . 142.4(9) no
C41 Eu2 H1H 2_566 . . 75.2(9) no
N8 S1 N13 . . . 100.68(12) no
N18 S2 N6 . . . 100.81(12) no
N7 S3 N21 . . . 100.87(12) no
N2 S4 N24 . . . 100.67(13) no
C19 O1 Eu1 . . 2_775 119.33(17) no
C42 O2 Eu2 . . . 91.26(16) no
C14 O7 Eu1 . . . 90.77(16) no
C19 O8 Eu1 . . . 167.58(19) no
Eu1 O9 H1C . . . 131.(3) no
Eu1 O9 H1D . . . 124.(4) no
H1C O9 H1D . . . 105.(5) no
Eu1 O10 H1K . . . 121.(3) no
Eu1 O10 H1L . . . 111.(7) no
H1K O10 H1L . . . 114.(7) no
C10 O12 H12A . . . 109.50 no
C14 O13 Eu1 . . . 90.99(16) no
C15 O14 Eu1 . . . 92.60(17) no
C15 O15 Eu1 . . . 92.08(16) no
C41 O16 Eu2 . . . 160.66(18) no
C41 O16 Eu2 . . 2_566 85.08(15) no
Eu2 O16 Eu2 . . 2_566 111.88(7) no
C41 O17 Eu2 . . 2_566 104.46(16) no
Eu2 O18 H1G . . . 129.(3) no
Eu2 O18 H1H . . . 117.(4) no
H1G O18 H1H . . . 113.(5) no
C42 O19 Eu2 . . . 92.73(17) no
Eu2 O20 H1A . . . 127.(3) no
Eu2 O20 H1B . . . 119.(3) no
H1A O20 H1B . . . 104.(4) no
C43 O21 Eu2 . . . 95.72(17) no
C43 O22 Eu2 . . . 84.00(18) no
C56 O23 H1M . . . 115.(9) no
C53 N1 N4 . . . 103.7(3) no
C51 N2 S4 . . . 106.7(2) no
C46 N3 N5 . . . 111.6(2) no
C46 N3 C47 . . . 129.3(2) no
N5 N3 C47 . . . 118.9(2) no
C55 N4 N1 . . . 111.5(3) no
C55 N4 C50 . . . 129.6(3) no
N1 N4 C50 . . . 118.9(3) no
C45 N5 N3 . . . 103.9(2) no
C24 N6 S2 . . . 106.53(18) no
C30 N7 S3 . . . 106.97(18) no
C8 N8 S1 . . . 106.91(19) no
C13 N9 N12 . . . 111.2(2) no
C13 N9 C7 . . . 130.3(2) no
N12 N9 C7 . . . 118.4(2) no
C1 N10 N11 . . . 111.5(2) no
C1 N10 C4 . . . 129.5(2) no
N11 N10 C4 . . . 118.9(2) no
C3 N11 N10 . . . 104.1(2) no
C11 N12 N9 . . . 104.0(2) no
C9 N13 S1 . . . 106.90(19) no
C17 N14 N15 . . . 111.2(2) no
C17 N14 C23 . . . 128.5(2) no
N15 N14 C23 . . . 120.1(2) no
C18 N15 N14 . . . 104.5(2) no
C21 N16 N17 . . . 111.9(2) no
C21 N16 C29 . . . 129.8(2) no
N17 N16 C29 . . . 118.4(2) no
C22 N17 N16 . . . 103.8(2) no
C25 N18 S2 . . . 106.66(18) no
C35 N19 N20 . . . 111.9(2) no
C35 N19 C26 . . . 129.6(2) no
N20 N19 C26 . . . 118.5(2) no
C37 N20 N19 . . . 104.0(2) no
C31 N21 S3 . . . 106.89(19) no
C38 N22 N23 . . . 111.4(2) no
C38 N22 C32 . . . 128.4(2) no
N23 N22 C32 . . . 120.1(2) no
C40 N23 N22 . . . 104.3(2) no
C52 N24 S4 . . . 107.0(2) no
N10 C1 C2 . . . 107.5(3) no
N10 C1 H1 . . . 126.30 no
C2 C1 H1 . . . 126.30 no
C1 C2 C3 . . . 104.8(3) no
C1 C2 C10 . . . 124.3(3) no
C3 C2 C10 . . . 130.9(3) no
N11 C3 C2 . . . 112.1(3) no
N11 C3 H3 . . . 124.00 no
C2 C3 H3 . . . 124.00 no
C5 C4 C9 . . . 117.7(2) no
C5 C4 N10 . . . 120.2(2) no
C9 C4 N10 . . . 122.1(2) no
C4 C5 C6 . . . 122.9(3) no
C4 C5 H5 . . . 118.60 no
C6 C5 H5 . . . 118.60 no
C7 C6 C5 . . . 121.5(2) no
C7 C6 H6 . . . 119.20 no
C5 C6 H6 . . . 119.20 no
C6 C7 N9 . . . 120.9(2) no
C6 C7 C8 . . . 117.9(2) no
N9 C7 C8 . . . 121.2(2) no
N8 C8 C7 . . . 126.7(2) no
N8 C8 C9 . . . 113.2(2) no
C7 C8 C9 . . . 120.1(2) no
N13 C9 C4 . . . 127.8(2) no
N13 C9 C8 . . . 112.3(2) no
C4 C9 C8 . . . 119.9(2) no
O11 C10 O12 . . . 125.0(3) no
O11 C10 C2 . . . 121.8(3) no
O12 C10 C2 . . . 113.2(3) no
N12 C11 C12 . . . 113.1(3) no
N12 C11 H11 . . . 123.40 no
C12 C11 H11 . . . 123.40 no
C13 C12 C11 . . . 104.0(2) no
C13 C12 C14 . . . 127.2(3) no
C11 C12 C14 . . . 128.3(3) no
N9 C13 C12 . . . 107.7(2) no
N9 C13 H13 . . . 126.10 no
C12 C13 H13 . . . 126.10 no
O7 C14 O13 . . . 120.4(3) no
O7 C14 C12 . . . 120.1(2) no
O13 C14 C12 . . . 119.2(3) no
O7 C14 Eu1 . . . 62.59(14) no
O13 C14 Eu1 . . . 62.29(14) no
C12 C14 Eu1 . . . 153.8(2) no
O15 C15 O14 . . . 121.5(2) no
O15 C15 C16 . . . 118.4(3) no
O14 C15 C16 . . . 120.1(3) no
O15 C15 Eu1 . . . 61.16(14) no
O14 C15 Eu1 . . . 60.51(14) no
C16 C15 Eu1 . . . 173.9(2) no
C17 C16 C18 . . . 104.1(2) no
C17 C16 C15 . . . 125.5(3) no
C18 C16 C15 . . . 130.3(3) no
N14 C17 C16 . . . 108.0(2) no
N14 C17 H17 . . . 126.00 no
C16 C17 H17 . . . 126.00 no
N15 C18 C16 . . . 112.2(3) no
N15 C18 H18 . . . 123.90 no
C16 C18 H18 . . . 123.90 no
O8 C19 O1 . . . 122.5(3) no
O8 C19 C20 . . . 118.2(2) no
O1 C19 C20 . . . 119.2(2) no
O8 C19 Eu1 . . 2_775 84.89(17) no
O1 C19 Eu1 . . 2_775 40.65(13) no
C20 C19 Eu1 . . 2_775 150.87(19) no
C21 C20 C22 . . . 104.4(2) no
C21 C20 C19 . . . 127.2(2) no
C22 C20 C19 . . . 128.2(2) no
N16 C21 C20 . . . 107.2(2) no
N16 C21 H21 . . . 126.40 no
C20 C21 H21 . . . 126.40 no
N17 C22 C20 . . . 112.8(2) no
N17 C22 H22 . . . 123.60 no
C20 C22 H22 . . . 123.60 no
C28 C23 N14 . . . 121.5(2) no
C28 C23 C24 . . . 117.8(2) no
N14 C23 C24 . . . 120.7(2) no
N6 C24 C23 . . . 127.1(2) no
N6 C24 C25 . . . 113.0(2) no
C23 C24 C25 . . . 119.9(2) no
N18 C25 C26 . . . 126.7(2) no
N18 C25 C24 . . . 112.9(2) no
C26 C25 C24 . . . 120.4(2) no
C27 C26 N19 . . . 121.2(2) no
C27 C26 C25 . . . 117.7(2) no
N19 C26 C25 . . . 121.1(2) no
C26 C27 C28 . . . 121.6(2) no
C26 C27 H27 . . . 119.20 no
C28 C27 H27 . . . 119.20 no
C23 C28 C27 . . . 122.6(3) no
C23 C28 H28 . . . 118.70 no
C27 C28 H28 . . . 118.70 no
C34 C29 C30 . . . 118.7(2) no
C34 C29 N16 . . . 120.8(2) no
C30 C29 N16 . . . 120.6(2) no
N7 C30 C29 . . . 127.8(2) no
N7 C30 C31 . . . 112.2(2) no
C29 C30 C31 . . . 120.0(2) no
N21 C31 C32 . . . 127.4(2) no
N21 C31 C30 . . . 113.1(2) no
C32 C31 C30 . . . 119.6(2) no
C33 C32 N22 . . . 121.3(2) no
C33 C32 C31 . . . 118.2(2) no
N22 C32 C31 . . . 120.5(2) no
C32 C33 C34 . . . 122.1(3) no
C32 C33 H33 . . . 118.90 no
C34 C33 H33 . . . 118.90 no
C29 C34 C33 . . . 121.5(2) no
C29 C34 H34 . . . 119.30 no
C33 C34 H34 . . . 119.30 no
N19 C35 C36 . . . 106.8(2) no
N19 C35 H35 . . . 126.60 no
C36 C35 H35 . . . 126.60 no
C35 C36 C37 . . . 104.5(2) no
C35 C36 C41 . . . 128.5(2) no
C37 C36 C41 . . . 126.9(2) no
N20 C37 C36 . . . 112.8(2) no
N20 C37 H37 . . . 123.60 no
C36 C37 H37 . . . 123.60 no
N22 C38 C39 . . . 107.5(3) no
N22 C38 H38 . . . 126.20 no
C39 C38 H38 . . . 126.20 no
C38 C39 C40 . . . 104.8(2) no
C38 C39 C42 . . . 125.1(3) no
C40 C39 C42 . . . 130.0(3) no
N23 C40 C39 . . . 112.0(3) no
N23 C40 H40 . . . 124.00 no
C39 C40 H40 . . . 124.00 no
O16 C41 O17 . . . 120.4(2) no
O16 C41 C36 . . . 121.2(2) no
O17 C41 C36 . . . 118.3(2) no
O16 C41 Eu2 . . 2_566 70.17(15) no
O17 C41 Eu2 . . 2_566 51.41(13) no
C36 C41 Eu2 . . 2_566 163.34(19) no
O2 C42 O19 . . . 121.4(2) no
O2 C42 C39 . . . 119.3(3) no
O19 C42 C39 . . . 119.2(3) no
O2 C42 Eu2 . . . 61.71(14) no
O19 C42 Eu2 . . . 60.24(14) no
C39 C42 Eu2 . . . 169.4(2) no
O22 C43 O21 . . . 120.6(3) no
O22 C43 C44 . . . 121.6(3) no
O21 C43 C44 . . . 117.4(2) no
O22 C43 Eu2 . . . 70.15(17) no
O21 C43 Eu2 . . . 57.80(15) no
C44 C43 Eu2 . . . 144.3(2) no
C46 C44 C45 . . . 104.3(3) no
C46 C44 C43 . . . 124.8(3) no
C45 C44 C43 . . . 130.2(3) no
N5 C45 C44 . . . 112.7(3) no
N5 C45 H45 . . . 123.70 no
C44 C45 H45 . . . 123.70 no
N3 C46 C44 . . . 107.5(3) no
N3 C46 H46 . . . 126.20 no
C44 C46 H46 . . . 126.20 no
C48 C47 N3 . . . 121.3(2) no
C48 C47 C52 . . . 117.6(3) no
N3 C47 C52 . . . 121.1(2) no
C47 C48 C49 . . . 121.8(3) no
C47 C48 H48 . . . 119.10 no
C49 C48 H48 . . . 119.10 no
C50 C49 C48 . . . 122.8(3) no
C50 C49 H49 . . . 118.60 no
C48 C49 H49 . . . 118.60 no
C49 C50 N4 . . . 120.6(3) no
C49 C50 C51 . . . 117.5(3) no
N4 C50 C51 . . . 121.9(3) no
N2 C51 C50 . . . 127.2(3) no
N2 C51 C52 . . . 112.8(2) no
C50 C51 C52 . . . 119.9(2) no
N24 C52 C47 . . . 126.7(3) no
N24 C52 C51 . . . 112.8(2) no
C47 C52 C51 . . . 120.4(2) no
N1 C53 C54 . . . 113.2(3) no
N1 C53 H53 . . . 123.40 no
C54 C53 H53 . . . 123.40 no
C55 C54 C53 . . . 104.5(3) no
C55 C54 C56 . . . 127.5(4) no
C53 C54 C56 . . . 127.8(4) no
N4 C55 C54 . . . 107.1(3) no
N4 C55 H55 . . . 126.50 no
C54 C55 H55 . . . 126.50 no
O23 C56 O24 . . . 125.3(4) no
O23 C56 C54 . . . 118.8(4) no
O24 C56 C54 . . . 115.9(5) no
O23 C56 H1M . . . 17.(3) no
O24 C56 H1M . . . 108.(3) no
C54 C56 H1M . . . 136.(3) no
H1E O5 H1F . . . 109.(6) no
H1I O6 H1J . . . 109.(4) no
O3 O3 H1 2_367 . . 131.(4) no
