data_1_a
_audit_creation_method 'SHELXL-2018/3'
_audit_creation_date	2023-03-30
_audit_update_record	2023-03-30
_chemical_formula_sum	'C H N O Zn'
_chemical_formula_weight	108.400
_refine_ls_R_factor_all	0.294
_cell_length_a	20.776(4)
_cell_length_b	 6.0680(12)
_cell_length_c	15.952(3)
_cell_angle_alpha	90.000
_cell_angle_beta	99.72(3)
_cell_angle_gamma	90.000
_cell_volume	1982.2(7)
_cell_formula_units_Z	25
_symmetry_cell_setting	monoclinic
_symmetry_int_tables_number	13
_symmetry_space_group_name_H-M	'P 1 2/c 1'
_symmetry_space_group_name_Hall	'-P_2yc'

loop_
_symmetry_equiv_pos_site_id
_symmetry_equiv_pos_as_xyz
1 x,y,z
2 -x,y,1/2-z
3 -x,-y,-z
4 x,-y,1/2+z

loop_
_atom_type_symbol
_atom_type_oxidation_number
_atom_type_radius_bond
Zn	?	?
O	?	?
N	?	?
C	?	?
H	?	?


loop_
_atom_site_label
_atom_site_type_symbol
_atom_site_fract_x
_atom_site_fract_y
_atom_site_fract_z
_atom_site_occupancy
_atom_site_symmetry_multiplicity
_atom_site_Wyckoff_symbol
_atom_site_attached_hydrogens
_atom_site_calc_flag
_atom_site_thermal_displace_type
_atom_site_u_iso_or_equiv
Zn01 Zn  0.5000 -0.6954(5)  0.2500  1.000 2 f ? d Uani  0.0508(11)
Zn02 Zn  1.0000  1.3576(6)  0.7500  1.000 2 e ? d Uani  0.0767(14)
O1 O  0.7885(11)  0.380(5)  0.4501(14)  1.000 4 g ? d Uani  0.171(13)
O2 O  0.8795(14)  1.371(5)  0.754(3)  1.000 4 g ? d Uani  0.25(2)
O3 O  0.9314(9)  1.147(3)  0.6934(12)  1.000 4 g ? d Uani  0.090(6)
O003 O  0.5300(7) -0.557(2)  0.3614(7)  1.000 4 g ? d Uani  0.049(4)
O004 O  0.5773(6) -0.3268(19)  0.2772(7)  1.000 4 g ? d Uani  0.048(3)
O005 O  0.4342(6) -0.910(2)  0.2796(8)  1.000 4 g ? d Uani  0.054(4)
N1 N  0.7259(10)  0.918(3)  0.7164(13)  1.000 4 g ? d Uani  0.078(6)
N2 N  0.7359(11)  0.238(4)  0.4500(14)  1.000 4 g ? d Uani  0.118(10)
N3 N  0.7908(12)  0.542(4)  0.5108(14)  1.000 4 g ? d Uani  0.121(10)
N006 N  0.6185(8)  0.043(2)  0.5065(9)  1.000 4 g ? d Uani  0.045(4)
N007 N  0.5798(9) -0.072(2)  0.5531(9)  1.000 4 g ? d Uani  0.051(5)
N008 N  0.7539(8)  0.790(3)  0.6587(10)  1.000 4 g ? d Uani  0.056(4)
N009 N  0.9976(10)  1.579(3)  0.8451(12)  1.000 4 g ? d Uani  0.079(6)
C1 C  0.6172(10) -0.052(3)  0.4282(12)  1.000 4 g ? d Uani  0.052(5)
H1 H  0.6391 -0.0036  0.3856  1.000 4 g ? calc Uiso  0.06300
C00A C  0.5784(9) -0.229(3)  0.4249(10)  1.000 4 g ? d Uani  0.039(5)
C00B C  0.5625(10) -0.377(3)  0.3486(12)  1.000 4 g ? d Uani  0.054(6)
C00F C  0.6521(10)  0.230(3)  0.5436(13)  1.000 4 g ? d Uani  0.052(5)
C00G C  0.7425(11)  0.512(4)  0.5507(13)  1.000 4 g ? d Uani  0.061(6)
C00H C  0.7221(10)  0.605(3)  0.6203(14)  1.000 4 g 49 d Uani  0.053(6)
C00J C  0.9506(15)  1.728(4)  0.8415(19)  1.000 4 g ? d Uani  0.121(12)
H00J H  0.9156  1.7194  0.7968  1.000 4 g ? calc Uiso  0.14600
C00L C  0.7063(11)  0.309(4)  0.5108(12)  1.000 4 g ? d Uani  0.061(6)
C00N C  0.6700(11)  0.519(3)  0.6472(15)  1.000 4 g ? d Uani  0.066(6)
H00N H  0.6568  0.5810  0.6948  1.000 4 g ? calc Uiso  0.07900
C00O C  0.8823(15)  1.196(5)  0.7185(19)  1.000 4 g ? d Uani  0.091(9)
C00Q C  1.0478(13)  1.750(5)  0.9766(16)  1.000 4 g ? d Uani  0.097(9)
H00Q H  1.0812  1.7496  1.0233  1.000 4 g ? calc Uiso  0.11700
C00R C  0.9505(14)  1.894(4)  0.8994(18)  1.000 4 g ? d Uani  0.109(11)
H00R H  0.9169  1.9967  0.8916  1.000 4 g ? calc Uiso  0.13100
C00S C  0.8118(11)  0.878(4)  0.6527(15)  1.000 4 g ? d Uani  0.072(7)
H00S H  0.8397  0.8211  0.6181  1.000 4 g ? calc Uiso  0.08600
C00T C  0.9981(13)  1.910(4)  0.9673(15)  1.000 4 g ? d Uani  0.073(7)
C00U C  0.6350(12)  0.345(3)  0.6093(12)  1.000 4 g ? d Uani  0.066(7)
H00U H  0.5974  0.3031  0.6296  1.000 4 g ? calc Uiso  0.07900
C00V C  0.8255(13)  1.057(4)  0.7020(19)  1.000 4 g ? d Uani  0.084(8)
C00W C  1.0445(13)  1.586(5)  0.9105(15)  1.000 4 g ? d Uani  0.088(9)
H00W H  1.0774  1.4806  0.9147  1.000 4 g ? calc Uiso  0.10600
C00X C  0.7702(18)  1.076(6)  0.737(2)  1.000 4 g ? d Uani  0.132(13)
H00X H  0.7638  1.1924  0.7729  1.000 4 g ? calc Uiso  0.15900
C2 C  0.5563(10) -0.232(3)  0.5020(12)  1.000 4 g ? d Uani  0.051(6)
H2 H  0.5275 -0.3377  0.5162  1.000 4 g ? calc Uiso  0.06100


loop_
_atom_site_aniso_label
_atom_site_aniso_U_11
_atom_site_aniso_U_22
_atom_site_aniso_U_33
_atom_site_aniso_U_12
_atom_site_aniso_U_13
_atom_site_aniso_U_23
Zn01  0.092(3)  0.0335(18)  0.0309(17)  0.00000  0.0223(18)  0.00000
Zn02  0.080(3)  0.052(2)  0.089(3)  0.00000 -0.010(2)  0.00000
O1  0.143(19)  0.26(3)  0.139(18) -0.11(2)  0.100(16) -0.13(2)
O2  0.17(3)  0.18(3)  0.44(5) -0.10(2)  0.13(3) -0.20(3)
O3  0.072(12)  0.087(13)  0.107(14) -0.036(11)  0.002(11)  0.010(11)
O003  0.089(10)  0.045(8)  0.019(6) -0.009(8)  0.022(7) -0.014(6)
O004  0.091(10)  0.034(7)  0.027(7)  0.005(7)  0.034(7) -0.014(6)
O005  0.061(9)  0.049(8)  0.058(8) -0.002(7)  0.026(7)  0.004(7)
N1  0.081(14)  0.065(13)  0.104(16) -0.002(12)  0.056(13) -0.037(12)
N2  0.107(18)  0.16(2)  0.098(16) -0.056(18)  0.063(15) -0.088(17)
N3  0.12(2)  0.16(2)  0.097(17) -0.037(18)  0.064(16) -0.090(17)
N006  0.057(11)  0.038(9)  0.041(9) -0.001(8)  0.007(8)  0.004(8)
N007  0.103(14)  0.028(9)  0.028(8) -0.021(9)  0.026(9) -0.010(7)
N008  0.057(12)  0.047(10)  0.062(11) -0.003(9)  0.004(9)  0.010(9)
N009  0.082(14)  0.063(13)  0.075(13)  0.051(12) -0.035(12)  0.007(10)
C1  0.068(15)  0.044(12)  0.049(13) -0.003(11)  0.025(11)  0.004(10)
C00A  0.071(14)  0.023(10)  0.021(9) -0.004(10)  0.000(9) -0.016(8)
C00B  0.074(15)  0.054(14)  0.033(12)  0.016(12)  0.009(11) -0.021(10)
C00F  0.073(15)  0.02(1)  0.062(13) -0.003(10)  0.011(12) -0.012(10)
C00G  0.074(16)  0.063(14)  0.058(13) -0.001(12)  0.047(13) -0.022(11)
C00H  0.053(13)  0.031(11)  0.080(16) -0.007(10)  0.021(12) -0.017(10)
C00J  0.14(3)  0.063(18)  0.13(3)  0.023(18) -0.05(2) -0.069(18)
C00L  0.068(15)  0.078(16)  0.039(12) -0.005(13)  0.013(11) -0.040(12)
C00N  0.087(18)  0.034(12)  0.083(16) -0.001(12)  0.034(15) -0.004(11)
C00O  0.09(2)  0.09(2)  0.09(2) -0.04(2)  0.013(18) -0.019(18)
C00Q  0.09(2)  0.14(3)  0.059(16) -0.01(2) -0.004(15) -0.025(18)
C00R  0.11(2)  0.066(18)  0.12(2)  0.014(16) -0.07(2) -0.003(17)
C00S  0.066(16)  0.071(17)  0.079(17) -0.020(14)  0.014(13) -0.002(14)
C00T  0.068(15)  0.068(17)  0.08(2)  0.008(16)  0.017(16)  0.033(13)
C00U  0.12(2)  0.040(13)  0.043(12) -0.021(13)  0.017(13) -0.006(10)
C00V  0.055(16)  0.051(16)  0.14(3)  0.008(13) -0.004(17) -0.027(17)
C00W  0.080(18)  0.12(2)  0.062(16)  0.042(18)  0.016(15)  0.020(17)
C00X  0.15(3)  0.11(3)  0.13(3) -0.05(3) -0.01(3) -0.04(2)
C2  0.078(15)  0.029(11)  0.061(13)  0.01(1)  0.053(12)  0.00(1)

loop_
_geom_bond_atom_site_label_1
_geom_bond_atom_site_label_2
_geom_bond_site_symmetry_1
_geom_bond_site_symmetry_2
_geom_bond_distance
_geom_bond_publ_flag
Zn01 O003 . .  1.969(11) no
Zn01 O003 . 2_655  1.969(11) no
Zn01 O005 . 2_655  2.002(12) no
Zn01 O005 . .  2.002(12) no
Zn02 O3 . .  2.010(16) no
Zn02 O3 . 2_756  2.010(16) no
Zn02 N009 . 2_756  2.034(19) no
Zn02 N009 . .  2.034(19) no
O1 N3 . .  1.38(3) no
O1 N2 . .  1.39(3) no
O2 C00O . .  1.21(3) no
O3 C00O . .  1.19(3) no
O003 C00B . .  1.32(2) no
O004 C00B . .  1.27(2) no
N1 C00X . .  1.33(3) no
N1 N008 . .  1.40(2) no
N2 C00L . .  1.31(2) no
N3 C00G . .  1.29(3) no
N006 C1 . .  1.37(2) no
N006 N007 . .  1.374(19) no
N006 C00F . .  1.41(2) no
N007 C2 . .  1.31(2) no
N008 C00S . .  1.33(2) no
N008 C00H . .  1.39(2) no
N009 C00W . .  1.30(3) no
N009 C00J . .  1.32(3) no
C1 C00A . .  1.34(2) no
C00A C2 . .  1.38(2) no
C00A C00B . .  1.50(2) no
C00F C00U . .  1.36(3) no
C00F C00L . .  1.40(3) no
C00G C00H . .  1.38(3) no
C00G C00L . .  1.53(3) no
C00H C00N . .  1.34(3) no
C00J C00R . .  1.36(3) no
C00N C00U . .  1.36(3) no
C00O C00V . .  1.44(4) no
C00Q C00T . .  1.41(3) no
C00Q C00W . .  1.44(3) no
C00R C00T . .  1.34(3) no
C00S C00V . .  1.34(3) no
C00T C00T . 3_797  1.50(5) no
C00V C00X . .  1.37(4) no

loop_
_geom_angle_atom_site_label_1
_geom_angle_atom_site_label_2
_geom_angle_atom_site_label_3
_geom_angle_site_symmetry_1
_geom_angle_site_symmetry_2
_geom_angle_site_symmetry_3
_geom_angle
_geom_angle_publ_flag
O003 Zn01 O003 . . 2_655 129.5(8) no
O003 Zn01 O005 . . 2_655 111.5(5) no
O003 Zn01 O005 2_655 . 2_655 100.9(5) no
O003 Zn01 O005 . . . 100.9(5) no
O003 Zn01 O005 2_655 . . 111.5(5) no
O005 Zn01 O005 2_655 . . 98.8(7) no
O3 Zn02 O3 . . 2_756 101.2(11) no
O3 Zn02 N009 . . 2_756 100.9(7) no
O3 Zn02 N009 2_756 . 2_756 130.5(9) no
O3 Zn02 N009 . . . 130.5(8) no
O3 Zn02 N009 2_756 . . 100.9(7) no
N009 Zn02 N009 2_756 . . 97.3(11) no
N3 O1 N2 . . . 112.2(17) no
C00O O3 Zn02 . . . 106.(2) no
C00B O003 Zn01 . . . 107.7(10) no
C00X N1 N008 . . . 103.(2) no
C00L N2 O1 . . . 105.1(19) no
C00G N3 O1 . . . 108.(2) no
C1 N006 N007 . . . 110.6(14) no
C1 N006 C00F . . . 130.9(17) no
N007 N006 C00F . . . 118.4(15) no
C2 N007 N006 . . . 103.5(13) no
C00S N008 C00H . . . 131.(2) no
C00S N008 N1 . . . 107.8(18) no
C00H N008 N1 . . . 121.1(17) no
C00W N009 C00J . . . 117.(2) no
C00W N009 Zn02 . . . 120.6(16) no
C00J N009 Zn02 . . . 122.0(16) no
C00A C1 N006 . . . 107.2(16) no
C1 C00A C2 . . . 105.3(16) no
C1 C00A C00B . . . 124.0(17) no
C2 C00A C00B . . . 130.6(18) no
O004 C00B O003 . . . 123.3(16) no
O004 C00B C00A . . . 122.0(19) no
O003 C00B C00A . . . 114.6(16) no
C00U C00F C00L . . . 116.3(18) no
C00U C00F N006 . . . 124.(2) no
C00L C00F N006 . . . 119.4(17) no
N3 C00G C00H . . . 135.(2) no
N3 C00G C00L . . . 106.1(18) no
C00H C00G C00L . . . 118.1(18) no
C00N C00H C00G . . . 118.3(19) no
C00N C00H N008 . . . 121.8(19) no
C00G C00H N008 . . . 119.9(19) no
N009 C00J C00R . . . 124.(3) no
N2 C00L C00F . . . 132.(2) no
N2 C00L C00G . . . 108.5(19) no
C00F C00L C00G . . . 119.4(16) no
C00H C00N C00U . . . 124.(2) no
O3 C00O O2 . . . 119.(3) no
O3 C00O C00V . . . 121.(3) no
O2 C00O C00V . . . 120.(3) no
C00T C00Q C00W . . . 117.(2) no
C00T C00R C00J . . . 121.(3) no
N008 C00S C00V . . . 113.(2) no
C00R C00T C00Q . . . 117.(2) no
C00R C00T C00T . . 3_797 124.(3) no
C00Q C00T C00T . . 3_797 118.(3) no
C00F C00U C00N . . . 123.(2) no
C00S C00V C00X . . . 102.(3) no
C00S C00V C00O . . . 132.(3) no
C00X C00V C00O . . . 126.(3) no
N009 C00W C00Q . . . 123.(2) no
N1 C00X C00V . . . 115.(3) no
N007 C2 C00A . . . 113.4(17) no
