data_pvl497_auto_a
_audit_creation_method 'SHELXL-2018/3'
_audit_creation_date	2022-11-24
_audit_update_record	2022-11-24
_chemical_formula_sum	'C16 H10 N8 O5 S2 Zn'
_chemical_formula_weight	523.830
_refine_ls_R_factor_all	0.023
_cell_length_a	 8.3210(2)
_cell_length_b	15.6560(3)
_cell_length_c	14.4223(3)
_cell_angle_alpha	90.000
_cell_angle_beta	101.147(2)
_cell_angle_gamma	90.000
_cell_volume	1843.4(1)
_cell_formula_units_Z	4
_symmetry_int_tables_number	14
_symmetry_space_group_name_H-M	'P 1 21/n 1'
_symmetry_space_group_name_Hall	'-P_2yn'

loop_
_symmetry_equiv_pos_site_id
_symmetry_equiv_pos_as_xyz
1 x,y,z
2 1/2-x,1/2+y,1/2-z
3 -x,-y,-z
4 1/2+x,1/2-y,1/2+z

loop_
_atom_type_symbol
_atom_type_oxidation_number
_atom_type_radius_bond
Zn	?	?
S	?	?
O	?	?
N	?	?
C	?	?
H	?	?


loop_
_atom_site_label
_atom_site_type_symbol
_atom_site_fract_x
_atom_site_fract_y
_atom_site_fract_z
_atom_site_occupancy
_atom_site_symmetry_multiplicity
_atom_site_Wyckoff_symbol
_atom_site_attached_hydrogens
_atom_site_calc_flag
_atom_site_thermal_displace_type
_atom_site_u_iso_or_equiv
Zn1_1 Zn  0.4018(0)  0.5057(0)  0.106()  1.000 4 e ? d Uani  0.01095(5)
S1_1 S  0.3438(0)  0.3991(0)  0.5767(0)  1.000 4 e ? d Uani  0.01712(8)
O1_1 O  0.6134(1)  0.5647(1)  0.1042(1)  1.000 4 e ? d Uani  0.0168(2)
N1_1 N  0.0362(1)  0.5915(1)  0.6988(1)  1.000 4 e ? d Uani  0.0138(2)
C1_1 C -0.0847(2)  0.6332(1)  0.8051(1)  1.000 4 e ? d Uani  0.0179(3)
H1_1 H -0.1561  0.6630  0.8378  1.000 4 e ? calc Uiso  0.02200
S2_1 S  0.7743(0)  0.7068(0)  0.2153(0)  1.000 4 e ? d Uani  0.01327(7)
O2_1 O  0.7178(1)  0.5871(1) -0.0264(1)  1.000 4 e ? d Uani  0.0165(2)
N2_1 N -0.0819(2)  0.6477(1)  0.7153(1)  1.000 4 e ? d Uani  0.0169(2)
C2_1 C  0.0964(2)  0.5480(1)  0.7790(1)  1.000 4 e ? d Uani  0.0183(3)
H2_1 H  0.1802  0.5060  0.7852  1.000 4 e ? calc Uiso  0.02200
O3_1 O  1.0068(1)  0.9190(1)  0.2903(1)  1.000 4 e ? d Uani  0.0163(2)
N3_1 N  0.0218(2)  0.5724(1)  0.8475(1)  1.000 4 e ? d Uani  0.0205(3)
C3_1 C  0.0854(2)  0.5910(1)  0.6104(1)  1.000 4 e ? d Uani  0.0130(3)
O4_1 O  0.8899(1)  0.8230(1)  0.3730(1)  1.000 4 e ? d Uani  0.0182(2)
N4_1 N  0.2405(1)  0.4555(1)  0.6383(1)  1.000 4 e ? d Uani  0.0158(2)
C4_1 C  0.1854(2)  0.5240(1)  0.5856(1)  1.000 4 e ? d Uani  0.0127(2)
O5_1 O  0.2769(1)  0.5993(1)  0.0119(1)  1.000 4 e ? d Uani  0.0177(2)
H1A_1 H  0.325(2)  0.6190(13) -0.0257(14)  1.000 4 e ? d Uiso  0.02700
N5_1 N  0.3268(1)  0.4566(1)  0.4821(1)  1.000 4 e ? d Uani  0.0148(2)
C5_1 C  0.2350(2)  0.5247(1)  0.4955(1)  1.000 4 e ? d Uani  0.0124(2)
N6_1 N  0.2352(1)  0.5973(1)  0.3431(1)  1.000 4 e ? d Uani  0.0126(2)
C6_1 C  0.1851(2)  0.5932(1)  0.4318(1)  1.000 4 e ? d Uani  0.0123(2)
N7_1 N  0.3131(1)  0.5682(1)  0.2113(1)  1.000 4 e ? d Uani  0.0137(2)
C7_1 C  0.0882(2)  0.6559(1)  0.4572(1)  1.000 4 e ? d Uani  0.0138(3)
H7_1 H  0.0531  0.7013  0.4145  1.000 4 e ? calc Uiso  0.01700
N8_1 N  0.2287(2)  0.6739(1)  0.2962(1)  1.000 4 e ? d Uani  0.0210(3)
C8_1 C  0.0386(2)  0.6548(1)  0.5460(1)  1.000 4 e ? d Uani  0.0136(3)
H8_1 H -0.0289  0.6996  0.5611  1.000 4 e ? calc Uiso  0.01600
C9_1 C  0.2868(2)  0.5356(1)  0.2916(1)  1.000 4 e ? d Uani  0.0134(3)
H9_1 H  0.3022  0.4774  0.3100  1.000 4 e ? calc Uiso  0.01600
C10_1 C  0.2757(2)  0.6526(1)  0.2177(1)  1.000 4 e ? d Uani  0.0198(3)
H10_1 H  0.2833  0.6927  0.1692  1.000 4 e ? calc Uiso  0.02400
C11_1 C  0.7026(2)  0.6038(1)  0.0564(1)  1.000 4 e ? d Uani  0.0124(2)
C12_1 C  0.7987(2)  0.6768(1)  0.1042(1)  1.000 4 e ? d Uani  0.0132(2)
C13_1 C  0.9032(2)  0.7923(1)  0.2154(1)  1.000 4 e ? d Uani  0.0131(2)
C14_1 C  0.9631(2)  0.7970(1)  0.1333(1)  1.000 4 e ? d Uani  0.0154(3)
H14_1 H  1.0361  0.8402  0.1207  1.000 4 e ? calc Uiso  0.01800
C15_1 C  0.9042(2)  0.7303(1)  0.0698(1)  1.000 4 e ? d Uani  0.0155(3)
H15_1 H  0.9341  0.7232  0.0099  1.000 4 e ? calc Uiso  0.01900
C16_1 C  0.9363(2)  0.8489(1)  0.3004(1)  1.000 4 e ? d Uani  0.0135(3)
H1B_1 H  0.190(2)  0.5836(11) -0.0201(13)  1.000 4 e ? d Uiso  0.02000


loop_
_atom_site_aniso_label
_atom_site_aniso_U_11
_atom_site_aniso_U_22
_atom_site_aniso_U_33
_atom_site_aniso_U_12
_atom_site_aniso_U_13
_atom_site_aniso_U_23
Zn1_1  0.01449(9)  0.01011(8)  0.00837(8) -0.00103(5)  0.00251(6) -0.00042(5)
S1_1  0.01852(17)  0.01574(17)  0.01710(17)  0.00430(12)  0.00346(14)  0.00381(13)
O1_1  0.0168(5)  0.0169(5)  0.0169(5) -0.0045(4)  0.0036(4)  0.0007(4)
N1_1  0.0136(5)  0.0159(6)  0.0123(5) -0.0006(4)  0.0039(4) -0.0001(4)
C1_1  0.0195(7)  0.0210(7)  0.0148(6) -0.0023(5)  0.0069(5) -0.0028(5)
S2_1  0.01791(16)  0.01148(15)  0.01113(15) -0.00235(12)  0.00456(12) -0.00086(11)
O2_1  0.0224(5)  0.0156(5)  0.0112(4) -0.0055(4)  0.0026(4) -0.0026(4)
N2_1  0.0182(6)  0.0177(6)  0.0162(6)  0.0014(5)  0.0067(5) -0.0018(5)
C2_1  0.0174(7)  0.0250(7)  0.0123(6)  0.0005(5)  0.0024(5)  0.0027(5)
O3_1  0.0235(5)  0.0110(4)  0.0135(5) -0.0028(4)  0.0011(4) -0.0017(4)
N3_1  0.0199(6)  0.0288(7)  0.0132(6) -0.0014(5)  0.0041(5)  0.0012(5)
C3_1  0.0128(6)  0.0159(6)  0.0105(6) -0.0028(5)  0.0024(5) -0.0010(5)
O4_1  0.0263(5)  0.0156(5)  0.0141(5) -0.0004(4)  0.0074(4) -0.0014(4)
N4_1  0.0174(6)  0.0157(6)  0.0141(5)  0.0001(4)  0.0024(5)  0.0022(4)
C4_1  0.0118(6)  0.0141(6)  0.0115(6) -0.0027(5)  0.0003(5)  0.0007(5)
O5_1  0.0211(5)  0.0204(5)  0.0110(5)  0.0004(4)  0.0014(4)  0.0036(4)
N5_1  0.0147(5)  0.0145(6)  0.0151(5)  0.0011(4)  0.0029(4)  0.0011(4)
C5_1  0.0119(6)  0.0127(6)  0.0122(6) -0.0016(5)  0.0016(5) -0.0010(5)
N6_1  0.0156(5)  0.0115(5)  0.0111(5)  0.0009(4)  0.0036(4)  0.0014(4)
C6_1  0.0135(6)  0.0136(6)  0.0099(6) -0.0025(5)  0.0023(5) -0.0004(5)
N7_1  0.0168(5)  0.0125(5)  0.0122(5)  0.0005(4)  0.0039(4)  0.0005(4)
C7_1  0.0164(6)  0.0134(6)  0.0114(6)  0.0001(5)  0.0023(5)  0.0008(5)
N8_1  0.0355(7)  0.0126(6)  0.0181(6)  0.0042(5)  0.0132(5)  0.0049(5)
C8_1  0.0140(6)  0.0137(6)  0.0135(6) -0.0001(5)  0.0037(5) -0.0015(5)
C9_1  0.0157(6)  0.0132(6)  0.0112(6)  0.0004(5)  0.0025(5) -0.0002(5)
C10_1  0.0311(8)  0.0142(7)  0.0166(7)  0.0044(6)  0.0110(6)  0.0041(5)
C11_1  0.0124(6)  0.0113(6)  0.0126(6)  0.0010(5)  0.0001(5)  0.0007(5)
C12_1  0.0152(6)  0.0130(6)  0.0112(6)  0.0003(5)  0.0018(5) -0.0012(5)
C13_1  0.0152(6)  0.0100(6)  0.0133(6)  0.0003(5)  0.0007(5) -0.0004(5)
C14_1  0.0169(6)  0.0143(6)  0.0149(6) -0.0030(5)  0.0033(5)  0.0000(5)
C15_1  0.0181(7)  0.0168(7)  0.0124(6) -0.0021(5)  0.0046(5) -0.0019(5)
C16_1  0.0152(6)  0.0115(6)  0.0127(6)  0.0034(5)  0.0005(5) -0.0005(5)

loop_
_geom_bond_atom_site_label_1
_geom_bond_atom_site_label_2
_geom_bond_site_symmetry_1
_geom_bond_site_symmetry_2
_geom_bond_distance
_geom_bond_publ_flag
Zn1_1 O1_1 . .  1.9931(10) no
Zn1_1 O2_1 . 3_665  1.9938(10) no
Zn1_1 O3_1 . 2_645  2.0544(10) no
Zn1_1 N7_1 . .  2.0602(11) no
Zn1_1 O5_1 . .  2.1267(10) no
S1_1 N4_1 . .  1.6125(12) no
S1_1 N5_1 . .  1.6181(12) no
O1_1 C11_1 . .  1.2645(16) no
N1_1 C2_1 . .  1.3530(18) no
N1_1 N2_1 . .  1.3746(16) no
N1_1 C3_1 . .  1.4124(17) no
C1_1 N2_1 . .  1.3183(18) no
C1_1 N3_1 . .  1.363(2) no
S2_1 C13_1 . .  1.7150(13) no
S2_1 C12_1 . .  1.7188(13) no
O2_1 C11_1 . .  1.2529(16) no
C2_1 N3_1 . .  1.3199(19) no
O3_1 C16_1 . .  1.2662(16) no
C3_1 C8_1 . .  1.3686(19) no
C3_1 C4_1 . .  1.4268(19) no
O4_1 C16_1 . .  1.2507(17) no
N4_1 C4_1 . .  1.3432(18) no
C4_1 C5_1 . .  1.4369(18) no
N5_1 C5_1 . .  1.3472(18) no
C5_1 C6_1 . .  1.4216(19) no
N6_1 C9_1 . .  1.3390(17) no
N6_1 N8_1 . .  1.3717(16) no
N6_1 C6_1 . .  1.4210(17) no
C6_1 C7_1 . .  1.3646(19) no
N7_1 C9_1 . .  1.3221(17) no
N7_1 C10_1 . .  1.3648(18) no
C7_1 C8_1 . .  1.4191(18) no
N8_1 C10_1 . .  1.3105(18) no
C11_1 C12_1 . .  1.4855(18) no
C12_1 C15_1 . .  1.3735(19) no
C13_1 C14_1 . .  1.3723(19) no
C13_1 C16_1 . .  1.4944(18) no
C14_1 C15_1 . .  1.4131(19) no

loop_
_geom_angle_atom_site_label_1
_geom_angle_atom_site_label_2
_geom_angle_atom_site_label_3
_geom_angle_site_symmetry_1
_geom_angle_site_symmetry_2
_geom_angle_site_symmetry_3
_geom_angle
_geom_angle_publ_flag
O1_1 Zn1_1 O2_1 . . 3_665 132.39(4) no
O1_1 Zn1_1 O3_1 . . 2_645 96.43(4) no
O2_1 Zn1_1 O3_1 3_665 . 2_645 90.65(4) no
O1_1 Zn1_1 N7_1 . . . 103.46(4) no
O2_1 Zn1_1 N7_1 3_665 . . 124.07(4) no
O3_1 Zn1_1 N7_1 2_645 . . 84.94(4) no
O1_1 Zn1_1 O5_1 . . . 89.79(4) no
O2_1 Zn1_1 O5_1 3_665 . . 90.38(4) no
O3_1 Zn1_1 O5_1 2_645 . . 170.55(4) no
N7_1 Zn1_1 O5_1 . . . 86.70(4) no
N4_1 S1_1 N5_1 . . . 101.05(6) no
C11_1 O1_1 Zn1_1 . . . 147.63(9) no
C2_1 N1_1 N2_1 . . . 109.39(11) no
C2_1 N1_1 C3_1 . . . 130.23(12) no
N2_1 N1_1 C3_1 . . . 120.17(11) no
N2_1 C1_1 N3_1 . . . 115.36(13) no
C13_1 S2_1 C12_1 . . . 91.59(7) no
C11_1 O2_1 Zn1_1 . . 3_665 124.76(9) no
C1_1 N2_1 N1_1 . . . 102.07(11) no
N3_1 C2_1 N1_1 . . . 110.20(13) no
C16_1 O3_1 Zn1_1 . . 2_655 127.08(9) no
C2_1 N3_1 C1_1 . . . 102.97(12) no
C8_1 C3_1 N1_1 . . . 120.91(12) no
C8_1 C3_1 C4_1 . . . 118.08(12) no
N1_1 C3_1 C4_1 . . . 121.01(12) no
C4_1 N4_1 S1_1 . . . 106.54(9) no
N4_1 C4_1 C3_1 . . . 126.65(12) no
N4_1 C4_1 C5_1 . . . 113.08(12) no
C3_1 C4_1 C5_1 . . . 120.26(12) no
C5_1 N5_1 S1_1 . . . 106.15(9) no
N5_1 C5_1 C6_1 . . . 127.38(12) no
N5_1 C5_1 C4_1 . . . 113.18(12) no
C6_1 C5_1 C4_1 . . . 119.44(12) no
C9_1 N6_1 N8_1 . . . 110.06(11) no
C9_1 N6_1 C6_1 . . . 130.35(11) no
N8_1 N6_1 C6_1 . . . 119.55(11) no
C7_1 C6_1 N6_1 . . . 120.07(12) no
C7_1 C6_1 C5_1 . . . 118.84(12) no
N6_1 C6_1 C5_1 . . . 121.09(12) no
C9_1 N7_1 C10_1 . . . 103.68(11) no
C9_1 N7_1 Zn1_1 . . . 127.31(9) no
C10_1 N7_1 Zn1_1 . . . 128.93(9) no
C6_1 C7_1 C8_1 . . . 121.64(12) no
C10_1 N8_1 N6_1 . . . 102.41(11) no
C3_1 C8_1 C7_1 . . . 121.72(12) no
N7_1 C9_1 N6_1 . . . 109.41(12) no
N8_1 C10_1 N7_1 . . . 114.44(12) no
O2_1 C11_1 O1_1 . . . 126.60(12) no
O2_1 C11_1 C12_1 . . . 117.34(12) no
O1_1 C11_1 C12_1 . . . 116.06(12) no
C15_1 C12_1 C11_1 . . . 128.68(12) no
C15_1 C12_1 S2_1 . . . 111.66(10) no
C11_1 C12_1 S2_1 . . . 119.55(10) no
C14_1 C13_1 C16_1 . . . 129.52(12) no
C14_1 C13_1 S2_1 . . . 111.85(10) no
C16_1 C13_1 S2_1 . . . 118.62(10) no
C13_1 C14_1 C15_1 . . . 112.43(12) no
C12_1 C15_1 C14_1 . . . 112.45(12) no
O4_1 C16_1 O3_1 . . . 127.02(12) no
O4_1 C16_1 C13_1 . . . 117.21(12) no
O3_1 C16_1 C13_1 . . . 115.76(12) no
